NAME : pairopt
TYPE : ACVRP
DIMENSION : 7
EDGE_WEIGHT_TYPE : EXPLICIT
EDGE_WEIGHT_FORMAT : FULL_MATRIX
CAPACITY : 15000
VEHICLES : 2
EDGE_WEIGHT_SECTION
100000 -100000 -100000 100000 100000 100000 100000 
100000 100000 1000000 50676 642 50806 50670 
100000 1000000 100000 136 51193 51389 51261 
0 50676 136 100000 102500 102915 102692 
0 642 51193 102500 100000 415 353 
0 50806 51389 102915 415 100000 266 
0 50670 51261 102692 353 266 100000 
DEMAND_SECTION
1 0
2 0
3 0
4 5000
5 5000
6 5000
7 5000
DEPOT_SECTION
1
EOF